(set-info :smt-lib-version 2.6)
(set-logic ALL)
(set-info :source |
Generated on: 2026-06-22
Generator: ppTransSmt github.com/CLEARSY/pptranspog
Application: Discharging a proof obligation generated by aTelierB from an anonymized B machine
Target solver: CVC5
Time limit: 1200.0
|)
(set-info :license "www.gnu.org/licenses/gpl-3.0.en.html")
(set-info :category "industrial")
(set-info :status unknown)

; Prelude
(declare-sort P 1)
(declare-fun mem0 (Int (P Int)) Bool)
(declare-sort C 2)
(define-fun MinInt () Int (- 2147483648))
(define-fun MaxInt () Int 2147483647)
; Global declarations
(declare-fun g_s0_0 () (P Int))
(declare-fun g_s10_10 () Int)
(declare-fun g_s11_11 () Int)
(declare-fun g_s12_12 () Int)
(declare-fun g_s13_13 () Int)
(declare-fun g_s14_14 () Int)
(declare-fun g_s15_15 () (P Int))
(declare-fun g_s16_16 () (P Int))
(declare-fun g_s17_17 () Int)
(declare-fun g_s18_18 () Int)
(declare-fun g_s19_19 () Int)
(declare-fun g_s1_1 () Int)
(declare-fun g_s20_20 () Int)
(declare-fun g_s21_21 () Int)
(declare-fun g_s22_22 () Int)
(declare-fun g_s23_23 () Int)
(declare-fun g_s24_24 () (P Int))
(declare-fun g_s25_25 () Int)
(declare-fun g_s26_26 () Int)
(declare-fun g_s27_27 () (P Int))
(declare-fun g_s28_28 () Int)
(declare-fun g_s29_29 () Int)
(declare-fun g_s2_2 () (P Int))
(declare-fun g_s30_30 () Int)
(declare-fun g_s31_31 () Int)
(declare-fun g_s32_32 () Int)
(declare-fun g_s33_33 () Int)
(declare-fun g_s34_61 () Int)
(declare-fun g_s37_34 () (P (C Int (P (C Int (P (C Int Int)))))))
(declare-fun g_s38$1_35 () (P (C Int Int)))
(declare-fun g_s38_42 () (P (C Int Int)))
(declare-fun g_s39$1_41 () Bool)
(declare-fun g_s39_40 () Bool)
(declare-fun g_s3_3 () (P Int))
(declare-fun g_s40$1_45 () Bool)
(declare-fun g_s40_44 () Bool)
(declare-fun g_s41$1_36 () (P (C Int (P Int))))
(declare-fun g_s41_43 () (P (C Int (P Int))))
(declare-fun g_s42$1_47 () Bool)
(declare-fun g_s42_46 () Bool)
(declare-fun g_s43$1_37 () Int)
(declare-fun g_s43_48 () Int)
(declare-fun g_s44$1_50 () Bool)
(declare-fun g_s44_49 () Bool)
(declare-fun g_s45$1_38 () Int)
(declare-fun g_s45_51 () Int)
(declare-fun g_s46$1_39 () Int)
(declare-fun g_s46_52 () Int)
(declare-fun g_s47$1_53 () (P (C Int (P (C Int Int)))))
(declare-fun g_s47_57 () (P (C Int (P (C Int Int)))))
(declare-fun g_s48$1_54 () (P (C Int (P (C Int Int)))))
(declare-fun g_s48_58 () (P (C Int (P (C Int Int)))))
(declare-fun g_s49$1_55 () (P (C Int (P (C Int Int)))))
(declare-fun g_s49_59 () (P (C Int (P (C Int Int)))))
(declare-fun g_s4_4 () (P (C Int (P (C Int (P Int))))))
(declare-fun g_s50$1_56 () (P (C Int (P (C Int Int)))))
(declare-fun g_s50_60 () (P (C Int (P (C Int Int)))))
(declare-fun g_s5_5 () Int)
(declare-fun g_s6_6 () Int)
(declare-fun g_s7_7 () Int)
(declare-fun g_s8_8 () (P Int))
(declare-fun g_s9_9 () Int)
(declare-fun mem2 ( Int (P (C Int (P Int))) (P (C Int (P (C Int (P Int)))))) Bool)
(declare-fun mem3 ( Int (P Int) (P (C Int (P Int)))) Bool)
(declare-fun mem4 ( Int Int (P (C Int Int))) Bool)
(declare-fun mem5 ( Int (P (C Int Int)) (P (C Int (P (C Int Int))))) Bool)
(declare-fun mem6 ( Int (P (C Int (P (C Int Int)))) (P (C Int (P (C Int (P (C Int Int))))))) Bool)
; Defines
(define-fun |def_lprp_0| () Bool (forall ( (x_3 Int) ) (= (and (mem0 x_3 g_s0_0) (and (>= x_3 0) (<= x_3 (- g_s1_1 1)))) false)))
(define-fun |def_lprp_1| () Bool (forall ( (x_4 Int) ) (=> (mem0 x_4 g_s2_2) (mem0 x_4 g_s3_3))))
(define-fun |def_lprp_2| () Bool (forall ( (x_5 (P (C Int (P Int)))) (x_6 Int) ) (= (mem2 x_6 x_5 g_s4_4) (or (and (or  (= x_6 g_s5_5) (= x_6 g_s6_6) (= x_6 g_s7_7)) (forall ( (x_7 (P Int)) (x_8 Int) ) (= (mem3 x_8 x_7 x_5) (and (mem0 x_8 g_s8_8) (forall ( (x_9 Int) ) (= (mem0 x_9 x_7) (mem0 x_9 g_s3_3))))))) (and (or  (= x_6 g_s9_9) (= x_6 g_s10_10) (= x_6 g_s11_11)) (forall ( (x_10 (P Int)) (x_11 Int) ) (= (mem3 x_11 x_10 x_5) (or (and (or  (= x_11 g_s12_12) (= x_11 g_s13_13)) (forall ( (x_12 Int) ) (= (mem0 x_12 x_10) (mem0 x_12 g_s2_2)))) (and (= x_11 g_s14_14) (forall ( (x_13 Int) ) (= (mem0 x_13 x_10) (mem0 x_13 g_s3_3))))))))))))
(define-fun |def_aprp_0| () Bool (and (forall ( (x_14 Int) ) (= (mem0 x_14 g_s15_15) (or  (= x_14 g_s9_9) (= x_14 g_s10_10) (= x_14 g_s5_5) (= x_14 g_s11_11) (= x_14 g_s6_6) (= x_14 g_s7_7)))) (distinct g_s9_9 g_s10_10 g_s5_5 g_s11_11 g_s6_6 g_s7_7)))
(define-fun |def_aprp_1| () Bool (and (forall ( (x_15 Int) ) (= (mem0 x_15 g_s8_8) (or  (= x_15 g_s12_12) (= x_15 g_s13_13) (= x_15 g_s14_14)))) (distinct g_s12_12 g_s13_13 g_s14_14)))
(define-fun |def_aprp_2| () Bool (and (forall ( (x_16 Int) ) (= (mem0 x_16 g_s16_16) (or  (= x_16 g_s17_17) (= x_16 g_s18_18) (= x_16 g_s19_19) (= x_16 g_s20_20) (= x_16 g_s21_21)))) (distinct g_s17_17 g_s18_18 g_s19_19 g_s20_20 g_s21_21)))
(define-fun |def_aprp_3| () Bool (= g_s1_1 10240))
(define-fun |def_aprp_4| () Bool (= g_s22_22 65536))
(define-fun |def_aprp_5| () Bool (= g_s23_23 69632))
(define-fun |def_aprp_6| () Bool (forall ( (x_17 Int) ) (=> (mem0 x_17 g_s24_24) true)))
(define-fun |def_aprp_7| () Bool (mem0 g_s25_25 g_s24_24))
(define-fun |def_aprp_8| () Bool (mem0 g_s26_26 g_s24_24))
(define-fun |def_aprp_9| () Bool (not (= g_s25_25 g_s26_26)))
(define-fun |def_aprp_10| () Bool (forall ( (x_18 Int) ) (= (mem0 x_18 g_s27_27) (and (>= x_18 0) (<= x_18 4294967295)))))
(define-fun |def_aprp_11| () Bool (= g_s28_28 131072))
(define-fun |def_aprp_12| () Bool (= g_s29_29 285))
(define-fun |def_aprp_13| () Bool (= g_s30_30 404))
(define-fun |def_aprp_14| () Bool (= g_s31_31 66048))
(define-fun |def_aprp_15| () Bool (= g_s32_32 66176))
(define-fun |def_aprp_16| () Bool (= g_s33_33 556032))
(define-fun |def_aprp_17| () Bool (forall ( (x_19 Int) ) (= (mem0 x_19 g_s0_0) (and (>= x_19 1241088) (<= x_19 1241599)))))
(define-fun |def_aprp_18| () Bool (forall ( (x_20 Int) ) (= (mem0 x_20 g_s3_3) (and (>= x_20 0) (<= x_20 15)))))
(define-fun |def_aprp_19| () Bool (exists ( (x_21 (P (C Int (P (C Int (P Int)))))) ) (and (forall ( (x_22 (P (C Int (P Int)))) (x_23 Int) ) (= (mem2 x_23 x_22 x_21) (mem2 x_23 x_22 g_s4_4))) (forall ( (x_24 Int) (x_25 (P (C Int (P Int)))) (x_26 (P (C Int (P Int)))) ) (=> (and  (mem2 x_24 x_25 x_21) (mem2 x_24 x_26 x_21)) (forall ( (x_27 (P Int)) (x_28 Int) ) (= (mem3 x_28 x_27 x_25) (mem3 x_28 x_27 x_26))))) (forall ( (x_29 Int) ) (= (mem0 x_29 g_s15_15) (exists ( (x_30 (P (C Int (P Int)))) ) (mem2 x_29 x_30 x_21)))) (forall ( (x_31 (P (C Int (P Int)))) ) (=> (exists ( (x_32 Int) ) (mem2 x_32 x_31 x_21)) (exists ( (x_33 (P (C Int (P Int)))) ) (and (forall ( (x_34 (P Int)) (x_35 Int) ) (= (mem3 x_35 x_34 x_33) (mem3 x_35 x_34 x_31))) (forall ( (x_36 Int) (x_37 (P Int)) (x_38 (P Int)) ) (=> (and  (mem3 x_36 x_37 x_33) (mem3 x_36 x_38 x_33)) (forall ( (x_39 Int) ) (= (mem0 x_39 x_37) (mem0 x_39 x_38))))) (forall ( (x_40 Int) ) (= (mem0 x_40 g_s8_8) (exists ( (x_41 (P Int)) ) (mem3 x_40 x_41 x_33)))) (forall ( (x_42 (P Int)) ) (=> (exists ( (x_43 Int) ) (mem3 x_43 x_42 x_33)) (forall ( (x_44 Int) ) (=> (mem0 x_44 x_42) (mem0 x_44 g_s3_3))))))))))))
(define-fun |def_abs_0| () Bool (forall ( (l_s34 Int) (l_s35 Int) (l_s36 Int) ) (=> (and  (mem0 l_s34 g_s16_16) (mem0 l_s35 g_s15_15) (or (and (>= l_s36 0) (<= l_s36 (- g_s1_1 1))) (and (>= l_s36 g_s22_22) (<= l_s36 (- g_s23_23 1))))) (not (forall ((x_45 (P (C Int Int))) ) (=> (forall ((x_46 (P (C Int (P (C Int Int))))) ) (=> (mem6 l_s35 x_46 g_s37_34) (mem5 l_s34 x_45 x_46))) (mem4 l_s36 g_s14_14 x_45)))))))
(define-fun |def_abs_1| () Bool (forall ( (x_47 Int) ) (= (exists ( (x_48 Int) ) (and  (= x_48 g_s25_25) (mem4 x_47 x_48 g_s38$1_35))) (and (>= x_47 0) (<= x_47 (- g_s1_1 1))))))
(define-fun |def_abs_2| () Bool (forall ( (x_49 Int) ) (= (exists ( (x_50 Int) ) (and  (= x_50 g_s26_26) (mem4 x_49 x_50 g_s38$1_35))) (and (>= x_49 g_s22_22) (<= x_49 (- g_s23_23 1))))))
(define-fun |def_abs_3| () Bool true)
(define-fun |def_abs_4| () Bool (and (forall ( (x_51 Int) (x_52 Int) ) (=> (mem4 x_52 x_51 g_s38$1_35) (and (mem0 x_52 g_s27_27) (mem0 x_51 g_s24_24)))) (forall ( (x_53 Int) (x_54 Int) (x_55 Int) ) (=> (and  (mem4 x_53 x_54 g_s38$1_35) (mem4 x_53 x_55 g_s38$1_35)) (= x_54 x_55)))))
(define-fun |def_abs_5| () Bool (exists ( (x_56 (P (C Int (P (C Int (P (C Int Int))))))) ) (and (forall ( (x_57 (P (C Int (P (C Int Int))))) (x_58 Int) ) (= (mem6 x_58 x_57 x_56) (mem6 x_58 x_57 g_s37_34))) (forall ( (x_59 Int) (x_60 (P (C Int (P (C Int Int))))) (x_61 (P (C Int (P (C Int Int))))) ) (=> (and  (mem6 x_59 x_60 x_56) (mem6 x_59 x_61 x_56)) (forall ( (x_62 (P (C Int Int))) (x_63 Int) ) (= (mem5 x_63 x_62 x_60) (mem5 x_63 x_62 x_61))))) (forall ( (x_64 Int) ) (= (mem0 x_64 g_s15_15) (exists ( (x_65 (P (C Int (P (C Int Int))))) ) (mem6 x_64 x_65 x_56)))) (forall ( (x_66 (P (C Int (P (C Int Int))))) ) (=> (exists ( (x_67 Int) ) (mem6 x_67 x_66 x_56)) (exists ( (x_68 (P (C Int (P (C Int Int))))) ) (and (forall ( (x_69 (P (C Int Int))) (x_70 Int) ) (= (mem5 x_70 x_69 x_68) (mem5 x_70 x_69 x_66))) (forall ( (x_71 Int) (x_72 (P (C Int Int))) (x_73 (P (C Int Int))) ) (=> (and  (mem5 x_71 x_72 x_68) (mem5 x_71 x_73 x_68)) (forall ( (x_74 Int) (x_75 Int) ) (= (mem4 x_75 x_74 x_72) (mem4 x_75 x_74 x_73))))) (forall ( (x_76 Int) ) (= (mem0 x_76 g_s16_16) (exists ( (x_77 (P (C Int Int))) ) (mem5 x_76 x_77 x_68)))) (forall ( (x_78 (P (C Int Int))) ) (=> (exists ( (x_79 Int) ) (mem5 x_79 x_78 x_68)) (forall ( (x_80 Int) (x_81 Int) ) (=> (mem4 x_81 x_80 x_78) (and (mem0 x_81 g_s27_27) (mem0 x_80 g_s8_8)))))))))))))
(define-fun |def_abs_6| () Bool (forall ( (l_s34 Int) (l_s35 Int) ) (=> (and  (mem0 l_s34 g_s16_16) (mem0 l_s35 g_s15_15)) (forall ( (x_82 Int) ) (=> (exists ( (x_83 Int) ) (forall ((x_84 (P (C Int Int))) ) (=> (forall ((x_85 (P (C Int (P (C Int Int))))) ) (=> (mem6 l_s35 x_85 g_s37_34) (mem5 l_s34 x_84 x_85))) (mem4 x_82 x_83 x_84)))) (exists ( (x_86 Int) ) (mem4 x_82 x_86 g_s38$1_35)))))))
(define-fun |def_abs_7| () Bool true)
(define-fun |def_abs_8| () Bool (exists ( (x_87 (P (C Int (P Int)))) ) (and (forall ( (x_88 (P Int)) (x_89 Int) ) (= (mem3 x_89 x_88 x_87) (mem3 x_89 x_88 g_s41$1_36))) (forall ( (x_90 Int) (x_91 (P Int)) (x_92 (P Int)) ) (=> (and  (mem3 x_90 x_91 x_87) (mem3 x_90 x_92 x_87)) (forall ( (x_93 Int) ) (= (mem0 x_93 x_91) (mem0 x_93 x_92))))) (forall ( (x_94 Int) ) (= (mem0 x_94 g_s16_16) (exists ( (x_95 (P Int)) ) (mem3 x_94 x_95 x_87)))) (forall ( (x_96 (P Int)) ) (=> (exists ( (x_97 Int) ) (mem3 x_97 x_96 x_87)) (forall ( (x_98 Int) ) (=> (mem0 x_98 x_96) (and (>= x_98 g_s31_31) (<= x_98 (- g_s32_32 1))))))))))
(define-fun |def_abs_9| () Bool true)
(define-fun |def_abs_10| () Bool (and (>= g_s43$1_37 g_s28_28) (<= g_s43$1_37 (+ g_s28_28 (* 65534 1024)))))
(define-fun |def_abs_11| () Bool true)
(define-fun |def_abs_12| () Bool (and (>= g_s45$1_38 g_s28_28) (<= g_s45$1_38 (+ g_s28_28 (* 65534 1024)))))
(define-fun |def_abs_13| () Bool (mem0 g_s46$1_39 g_s16_16))
(define-fun |def_abs_14| () Bool (forall ( (l_s34 Int) (l_s35 Int) (l_s36 Int) ) (=> (and  (mem0 l_s34 g_s16_16) (mem0 l_s35 g_s15_15) (mem0 l_s36 g_s27_27) (exists ( (x_99 Int) ) (mem4 l_s36 x_99 g_s38$1_35)) (or  (mem4 l_s36 g_s26_26 g_s38$1_35) (mem4 l_s36 g_s25_25 g_s38$1_35))) (not (forall ((x_100 (P (C Int Int))) ) (=> (forall ((x_101 (P (C Int (P (C Int Int))))) ) (=> (mem6 l_s35 x_101 g_s37_34) (mem5 l_s34 x_100 x_101))) (mem4 l_s36 g_s14_14 x_100)))))))
(define-fun |def_abs_15| () Bool (forall ( (l_s35 Int) ) (=> (mem0 l_s35 g_s15_15) (forall ( (x_102 Int) (x_103 Int) ) (= (and (forall ((x_104 (P (C Int Int))) ) (=> (forall ((x_105 (P (C Int (P (C Int Int))))) ) (=> (mem6 l_s35 x_105 g_s37_34) (mem5 g_s17_17 x_104 x_105))) (mem4 x_103 x_102 x_104))) (and (and (>= x_103 g_s28_28) (<= x_103 (- g_s45$1_38 1))) (= x_102 g_s13_13))) false)))))
(define-fun |def_abs_16| () Bool (forall ( (l_s35 Int) (l_s34 Int) ) (=> (and  (or  (= l_s35 g_s9_9) (= l_s35 g_s10_10) (= l_s35 g_s11_11)) (and (mem0 l_s34 g_s16_16) (not (or  (= l_s34 g_s17_17) (= l_s34 g_s18_18))))) (forall ( (x_106 Int) (x_107 Int) ) (=> (and (forall ((x_108 Int) ) (=> (and  (or  (= x_108 g_s45$1_38) (= x_108 g_s43$1_37) (= x_108 g_s33_33)) (forall ( (x_109 Int) ) (=> (or  (= x_109 g_s45$1_38) (= x_109 g_s43$1_37) (= x_109 g_s33_33)) (<= x_108 x_109)))) (and (>= x_107 g_s28_28) (<= x_107 (- x_108 1))))) (= x_106 g_s13_13)) (forall ((x_110 (P (C Int Int))) ) (=> (forall ((x_111 (P (C Int (P (C Int Int))))) ) (=> (mem6 l_s35 x_111 g_s37_34) (mem5 l_s34 x_110 x_111))) (mem4 x_107 x_106 x_110))))))))
(define-fun |def_abs_17| () Bool (forall ( (l_s35 Int) ) (=> (mem0 l_s35 g_s15_15) (forall ( (x_112 Int) (x_113 Int) ) (= (and (and (mem0 x_113 g_s0_0) (= x_112 g_s13_13)) (forall ((x_114 (P (C Int Int))) ) (=> (forall ((x_115 (P (C Int (P (C Int Int))))) ) (=> (mem6 l_s35 x_115 g_s37_34) (mem5 g_s21_21 x_114 x_115))) (mem4 x_113 x_112 x_114)))) false)))))
(define-fun |def_inv_0| () Bool (= g_s39_40 g_s39$1_41))
(define-fun |def_inv_1| () Bool (forall ( (x_116 Int) (x_117 Int) ) (= (mem4 x_117 x_116 g_s38_42) (mem4 x_117 x_116 g_s38$1_35))))
(define-fun |def_inv_2| () Bool (forall ( (x_118 (P Int)) (x_119 Int) ) (= (mem3 x_119 x_118 g_s41_43) (mem3 x_119 x_118 g_s41$1_36))))
(define-fun |def_inv_3| () Bool (= g_s40_44 g_s40$1_45))
(define-fun |def_inv_4| () Bool (= g_s42_46 g_s42$1_47))
(define-fun |def_inv_5| () Bool (= g_s43_48 g_s43$1_37))
(define-fun |def_inv_6| () Bool (= g_s44_49 g_s44$1_50))
(define-fun |def_inv_7| () Bool (= g_s45_51 g_s45$1_38))
(define-fun |def_inv_8| () Bool (= g_s46_52 g_s46$1_39))
(define-fun |def_inv_9| () Bool (and (forall ( (x_120 Int) (x_121 Int) ) (=> (mem4 x_121 x_120 g_s38$1_35) (and (mem0 x_121 g_s27_27) (mem0 x_120 g_s24_24)))) (forall ( (x_122 Int) (x_123 Int) (x_124 Int) ) (=> (and  (mem4 x_122 x_123 g_s38$1_35) (mem4 x_122 x_124 g_s38$1_35)) (= x_123 x_124)))))
(define-fun |def_inv_10| () Bool (exists ( (x_125 (P (C Int (P (C Int Int))))) ) (and (forall ( (x_126 (P (C Int Int))) (x_127 Int) ) (= (mem5 x_127 x_126 x_125) (mem5 x_127 x_126 g_s47$1_53))) (forall ( (x_128 Int) (x_129 (P (C Int Int))) (x_130 (P (C Int Int))) ) (=> (and  (mem5 x_128 x_129 x_125) (mem5 x_128 x_130 x_125)) (forall ( (x_131 Int) (x_132 Int) ) (= (mem4 x_132 x_131 x_129) (mem4 x_132 x_131 x_130))))) (forall ( (x_133 Int) ) (= (mem0 x_133 g_s16_16) (exists ( (x_134 (P (C Int Int))) ) (mem5 x_133 x_134 x_125)))) (forall ( (x_135 (P (C Int Int))) ) (=> (exists ( (x_136 Int) ) (mem5 x_136 x_135 x_125)) (forall ( (x_137 Int) (x_138 Int) ) (=> (mem4 x_138 x_137 x_135) (and (exists ( (x_139 Int) ) (mem4 x_138 x_139 g_s38$1_35)) (or  (= x_137 g_s12_12) (= x_137 g_s13_13))))))))))
(define-fun |def_inv_11| () Bool (exists ( (x_140 (P (C Int (P (C Int Int))))) ) (and (forall ( (x_141 (P (C Int Int))) (x_142 Int) ) (= (mem5 x_142 x_141 x_140) (mem5 x_142 x_141 g_s48$1_54))) (forall ( (x_143 Int) (x_144 (P (C Int Int))) (x_145 (P (C Int Int))) ) (=> (and  (mem5 x_143 x_144 x_140) (mem5 x_143 x_145 x_140)) (forall ( (x_146 Int) (x_147 Int) ) (= (mem4 x_147 x_146 x_144) (mem4 x_147 x_146 x_145))))) (forall ( (x_148 Int) ) (= (mem0 x_148 g_s16_16) (exists ( (x_149 (P (C Int Int))) ) (mem5 x_148 x_149 x_140)))) (forall ( (x_150 (P (C Int Int))) ) (=> (exists ( (x_151 Int) ) (mem5 x_151 x_150 x_140)) (forall ( (x_152 Int) (x_153 Int) ) (=> (mem4 x_153 x_152 x_150) (and (and (exists ( (x_154 Int) ) (mem4 x_153 x_154 g_s38$1_35)) (and (>= x_153 g_s28_28) (<= x_153 4294967295))) (= x_152 g_s14_14)))))))))
(define-fun |def_inv_12| () Bool (exists ( (x_155 (P (C Int (P (C Int Int))))) ) (and (forall ( (x_156 (P (C Int Int))) (x_157 Int) ) (= (mem5 x_157 x_156 x_155) (mem5 x_157 x_156 g_s49$1_55))) (forall ( (x_158 Int) (x_159 (P (C Int Int))) (x_160 (P (C Int Int))) ) (=> (and  (mem5 x_158 x_159 x_155) (mem5 x_158 x_160 x_155)) (forall ( (x_161 Int) (x_162 Int) ) (= (mem4 x_162 x_161 x_159) (mem4 x_162 x_161 x_160))))) (forall ( (x_163 Int) ) (= (mem0 x_163 g_s16_16) (exists ( (x_164 (P (C Int Int))) ) (mem5 x_163 x_164 x_155)))) (forall ( (x_165 (P (C Int Int))) ) (=> (exists ( (x_166 Int) ) (mem5 x_166 x_165 x_155)) (forall ( (x_167 Int) (x_168 Int) ) (=> (mem4 x_168 x_167 x_165) (and (and (>= x_168 0) (<= x_168 (- g_s1_1 1))) (= x_167 g_s12_12)))))))))
(define-fun |def_inv_13| () Bool (exists ( (x_169 (P (C Int (P (C Int Int))))) ) (and (forall ( (x_170 (P (C Int Int))) (x_171 Int) ) (= (mem5 x_171 x_170 x_169) (mem5 x_171 x_170 g_s50$1_56))) (forall ( (x_172 Int) (x_173 (P (C Int Int))) (x_174 (P (C Int Int))) ) (=> (and  (mem5 x_172 x_173 x_169) (mem5 x_172 x_174 x_169)) (forall ( (x_175 Int) (x_176 Int) ) (= (mem4 x_176 x_175 x_173) (mem4 x_176 x_175 x_174))))) (forall ( (x_177 Int) ) (= (mem0 x_177 g_s16_16) (exists ( (x_178 (P (C Int Int))) ) (mem5 x_177 x_178 x_169)))) (forall ( (x_179 (P (C Int Int))) ) (=> (exists ( (x_180 Int) ) (mem5 x_180 x_179 x_169)) (forall ( (x_181 Int) (x_182 Int) ) (=> (mem4 x_182 x_181 x_179) (and (and (>= x_182 0) (<= x_182 (- g_s1_1 1))) (or  (= x_181 g_s12_12) (= x_181 g_s13_13))))))))))
(define-fun |def_inv_14| () Bool (forall ( (x_183 Int) (x_184 Int) ) (= (and (forall ((x_185 (P (C Int Int))) ) (=> (mem5 g_s17_17 x_185 g_s47$1_53) (mem4 x_184 x_183 x_185))) (and (and (>= x_184 g_s28_28) (<= x_184 (- g_s45$1_38 1))) (= x_183 g_s13_13))) false)))
(define-fun |def_inv_15| () Bool (forall ( (l_s34 Int) ) (=> (and (mem0 l_s34 g_s16_16) (not (or  (= l_s34 g_s17_17) (= l_s34 g_s18_18)))) (forall ( (x_186 Int) (x_187 Int) ) (=> (and (forall ((x_188 Int) ) (=> (and  (or  (= x_188 g_s45$1_38) (= x_188 g_s43$1_37) (= x_188 g_s33_33)) (forall ( (x_189 Int) ) (=> (or  (= x_189 g_s45$1_38) (= x_189 g_s43$1_37) (= x_189 g_s33_33)) (<= x_188 x_189)))) (and (>= x_187 g_s28_28) (<= x_187 (- x_188 1))))) (= x_186 g_s13_13)) (forall ((x_190 (P (C Int Int))) ) (=> (mem5 l_s34 x_190 g_s47$1_53) (mem4 x_187 x_186 x_190))))))))
(define-fun |def_inv_16| () Bool (forall ( (x_191 Int) (x_192 Int) ) (= (and (and (mem0 x_192 g_s0_0) (= x_191 g_s13_13)) (forall ((x_193 (P (C Int Int))) ) (=> (mem5 g_s21_21 x_193 g_s47$1_53) (mem4 x_192 x_191 x_193)))) false)))
(define-fun |def_inv_17| () Bool (forall ( (x_194 (P (C Int (P (C Int Int))))) (x_195 Int) ) (= (mem6 x_195 x_194 g_s37_34) (or (or (or (or (or (and (= x_195 g_s5_5) (forall ( (x_196 (P (C Int Int))) (x_197 Int) ) (= (mem5 x_197 x_196 x_194) (mem5 x_197 x_196 g_s50$1_56)))) (and (= x_195 g_s7_7) (forall ( (x_198 (P (C Int Int))) (x_199 Int) ) (= (mem5 x_199 x_198 x_194) (mem5 x_199 x_198 g_s49$1_55))))) (and (= x_195 g_s6_6) (forall ( (x_200 (P (C Int Int))) (x_201 Int) ) (= (mem5 x_201 x_200 x_194) (and  (mem0 x_201 g_s16_16) (forall ( (x_202 Int) (x_203 Int) ) (= (mem4 x_203 x_202 x_200) (and (and (>= x_203 0) (<= x_203 (- g_s1_1 1))) (or  (= x_202 g_s12_12) (= x_202 g_s13_13)))))))))) (and (= x_195 g_s9_9) (forall ( (x_204 (P (C Int Int))) (x_205 Int) ) (= (mem5 x_205 x_204 x_194) (and  (mem0 x_205 g_s16_16) (forall ( (x_206 Int) (x_207 Int) ) (= (mem4 x_207 x_206 x_204) (or (forall ((x_208 (P (C Int Int))) ) (=> (mem5 x_205 x_208 g_s48$1_54) (mem4 x_207 x_206 x_208))) (forall ((x_209 (P (C Int Int))) ) (=> (mem5 x_205 x_209 g_s47$1_53) (mem4 x_207 x_206 x_209))))))))))) (and (= x_195 g_s10_10) (forall ( (x_210 (P (C Int Int))) (x_211 Int) ) (= (mem5 x_211 x_210 x_194) (mem5 x_211 x_210 g_s47$1_53))))) (and (= x_195 g_s11_11) (forall ( (x_212 (P (C Int Int))) (x_213 Int) ) (= (mem5 x_213 x_212 x_194) (mem5 x_213 x_212 g_s47$1_53))))))))
(define-fun |def_ass_0| () Bool (mem6 g_s5_5 g_s50$1_56 g_s37_34))
(define-fun |def_ass_1| () Bool (mem6 g_s7_7 g_s49$1_55 g_s37_34))
(define-fun |def_ass_2| () Bool (forall ((x_214 (P (C Int (P (C Int Int))))) ) (=> (forall ( (x_215 (P (C Int Int))) (x_216 Int) ) (= (mem5 x_216 x_215 x_214) (and  (mem0 x_216 g_s16_16) (forall ( (x_217 Int) (x_218 Int) ) (= (mem4 x_218 x_217 x_215) (and (and (>= x_218 0) (<= x_218 (- g_s1_1 1))) (or  (= x_217 g_s12_12) (= x_217 g_s13_13)))))))) (mem6 g_s6_6 x_214 g_s37_34))))
(define-fun |def_ass_3| () Bool (forall ((x_219 (P (C Int (P (C Int Int))))) ) (=> (forall ( (x_220 (P (C Int Int))) (x_221 Int) ) (= (mem5 x_221 x_220 x_219) (and  (mem0 x_221 g_s16_16) (forall ( (x_222 Int) (x_223 Int) ) (= (mem4 x_223 x_222 x_220) (or (forall ((x_224 (P (C Int Int))) ) (=> (mem5 x_221 x_224 g_s48$1_54) (mem4 x_223 x_222 x_224))) (forall ((x_225 (P (C Int Int))) ) (=> (mem5 x_221 x_225 g_s47$1_53) (mem4 x_223 x_222 x_225))))))))) (mem6 g_s9_9 x_219 g_s37_34))))
(define-fun |def_ass_4| () Bool (mem6 g_s10_10 g_s47$1_53 g_s37_34))
(define-fun |def_ass_5| () Bool (mem6 g_s11_11 g_s47$1_53 g_s37_34))
; PO group s79
(assert (! |def_aprp_0| :named |aprp0|))
(assert (! |def_aprp_1| :named |aprp1|))
(assert (! |def_aprp_2| :named |aprp2|))
(assert (! |def_aprp_3| :named |aprp3|))
(assert (! |def_aprp_4| :named |aprp4|))
(assert (! |def_aprp_5| :named |aprp5|))
(assert (! |def_aprp_6| :named |aprp6|))
(assert (! |def_aprp_7| :named |aprp7|))
(assert (! |def_aprp_8| :named |aprp8|))
(assert (! |def_aprp_9| :named |aprp9|))
(assert (! |def_aprp_10| :named |aprp10|))
(assert (! |def_aprp_11| :named |aprp11|))
(assert (! |def_aprp_12| :named |aprp12|))
(assert (! |def_aprp_13| :named |aprp13|))
(assert (! |def_aprp_14| :named |aprp14|))
(assert (! |def_aprp_15| :named |aprp15|))
(assert (! |def_aprp_16| :named |aprp16|))
(assert (! |def_aprp_17| :named |aprp17|))
(assert (! |def_aprp_18| :named |aprp18|))
(assert (! |def_aprp_19| :named |aprp19|))
(assert (! |def_lprp_0| :named |lprp0|))
(assert (! |def_lprp_1| :named |lprp1|))
(assert (! |def_lprp_2| :named |lprp2|))
(define-fun lh_1 () Bool true)
(define-fun lh_2 () Bool (and (>= g_s43_48 g_s28_28) (<= g_s43_48 (+ g_s28_28 (* 65534 1024)))))
(define-fun lh_3 () Bool true)
(define-fun lh_4 () Bool (and (>= g_s45_51 g_s28_28) (<= g_s45_51 (+ g_s28_28 (* 65534 1024)))))
(define-fun lh_5 () Bool (and (forall ( (x_226 Int) (x_227 Int) ) (=> (mem4 x_227 x_226 g_s38_42) (and (mem0 x_227 g_s27_27) (mem0 x_226 g_s24_24)))) (forall ( (x_228 Int) (x_229 Int) (x_230 Int) ) (=> (and  (mem4 x_228 x_229 g_s38_42) (mem4 x_228 x_230 g_s38_42)) (= x_229 x_230)))))
(define-fun lh_6 () Bool (forall ( (x_231 Int) ) (= (exists ( (x_232 Int) ) (and  (= x_232 g_s25_25) (mem4 x_231 x_232 g_s38_42))) (and (>= x_231 0) (<= x_231 (- g_s1_1 1))))))
(define-fun lh_7 () Bool (forall ( (x_233 Int) ) (= (exists ( (x_234 Int) ) (and  (= x_234 g_s26_26) (mem4 x_233 x_234 g_s38_42))) (and (>= x_233 g_s22_22) (<= x_233 (- g_s23_23 1))))))
(define-fun lh_8 () Bool (exists ( (x_235 (P (C Int (P Int)))) ) (and (forall ( (x_236 (P Int)) (x_237 Int) ) (= (mem3 x_237 x_236 x_235) (mem3 x_237 x_236 g_s41_43))) (forall ( (x_238 Int) (x_239 (P Int)) (x_240 (P Int)) ) (=> (and  (mem3 x_238 x_239 x_235) (mem3 x_238 x_240 x_235)) (forall ( (x_241 Int) ) (= (mem0 x_241 x_239) (mem0 x_241 x_240))))) (forall ( (x_242 Int) ) (= (mem0 x_242 g_s16_16) (exists ( (x_243 (P Int)) ) (mem3 x_242 x_243 x_235)))) (forall ( (x_244 (P Int)) ) (=> (exists ( (x_245 Int) ) (mem3 x_245 x_244 x_235)) (forall ( (x_246 Int) ) (=> (mem0 x_246 x_244) (and (>= x_246 g_s31_31) (<= x_246 (- g_s32_32 1))))))))))
(define-fun lh_9 () Bool (exists ( (x_247 (P (C Int (P (C Int Int))))) ) (and (forall ( (x_248 (P (C Int Int))) (x_249 Int) ) (= (mem5 x_249 x_248 x_247) (mem5 x_249 x_248 g_s47_57))) (forall ( (x_250 Int) (x_251 (P (C Int Int))) (x_252 (P (C Int Int))) ) (=> (and  (mem5 x_250 x_251 x_247) (mem5 x_250 x_252 x_247)) (forall ( (x_253 Int) (x_254 Int) ) (= (mem4 x_254 x_253 x_251) (mem4 x_254 x_253 x_252))))) (forall ( (x_255 Int) ) (= (mem0 x_255 g_s16_16) (exists ( (x_256 (P (C Int Int))) ) (mem5 x_255 x_256 x_247)))) (forall ( (x_257 (P (C Int Int))) ) (=> (exists ( (x_258 Int) ) (mem5 x_258 x_257 x_247)) (forall ( (x_259 Int) (x_260 Int) ) (=> (mem4 x_260 x_259 x_257) (and (exists ( (x_261 Int) ) (mem4 x_260 x_261 g_s38_42)) (or  (= x_259 g_s12_12) (= x_259 g_s13_13))))))))))
(define-fun lh_10 () Bool (exists ( (x_262 (P (C Int (P (C Int Int))))) ) (and (forall ( (x_263 (P (C Int Int))) (x_264 Int) ) (= (mem5 x_264 x_263 x_262) (mem5 x_264 x_263 g_s48_58))) (forall ( (x_265 Int) (x_266 (P (C Int Int))) (x_267 (P (C Int Int))) ) (=> (and  (mem5 x_265 x_266 x_262) (mem5 x_265 x_267 x_262)) (forall ( (x_268 Int) (x_269 Int) ) (= (mem4 x_269 x_268 x_266) (mem4 x_269 x_268 x_267))))) (forall ( (x_270 Int) ) (= (mem0 x_270 g_s16_16) (exists ( (x_271 (P (C Int Int))) ) (mem5 x_270 x_271 x_262)))) (forall ( (x_272 (P (C Int Int))) ) (=> (exists ( (x_273 Int) ) (mem5 x_273 x_272 x_262)) (forall ( (x_274 Int) (x_275 Int) ) (=> (mem4 x_275 x_274 x_272) (and (and (exists ( (x_276 Int) ) (mem4 x_275 x_276 g_s38_42)) (and (>= x_275 g_s28_28) (<= x_275 4294967295))) (= x_274 g_s14_14)))))))))
(define-fun lh_11 () Bool (exists ( (x_277 (P (C Int (P (C Int Int))))) ) (and (forall ( (x_278 (P (C Int Int))) (x_279 Int) ) (= (mem5 x_279 x_278 x_277) (mem5 x_279 x_278 g_s49_59))) (forall ( (x_280 Int) (x_281 (P (C Int Int))) (x_282 (P (C Int Int))) ) (=> (and  (mem5 x_280 x_281 x_277) (mem5 x_280 x_282 x_277)) (forall ( (x_283 Int) (x_284 Int) ) (= (mem4 x_284 x_283 x_281) (mem4 x_284 x_283 x_282))))) (forall ( (x_285 Int) ) (= (mem0 x_285 g_s16_16) (exists ( (x_286 (P (C Int Int))) ) (mem5 x_285 x_286 x_277)))) (forall ( (x_287 (P (C Int Int))) ) (=> (exists ( (x_288 Int) ) (mem5 x_288 x_287 x_277)) (forall ( (x_289 Int) (x_290 Int) ) (=> (mem4 x_290 x_289 x_287) (and (and (>= x_290 0) (<= x_290 (- g_s1_1 1))) (= x_289 g_s12_12)))))))))
(define-fun lh_12 () Bool (exists ( (x_291 (P (C Int (P (C Int Int))))) ) (and (forall ( (x_292 (P (C Int Int))) (x_293 Int) ) (= (mem5 x_293 x_292 x_291) (mem5 x_293 x_292 g_s50_60))) (forall ( (x_294 Int) (x_295 (P (C Int Int))) (x_296 (P (C Int Int))) ) (=> (and  (mem5 x_294 x_295 x_291) (mem5 x_294 x_296 x_291)) (forall ( (x_297 Int) (x_298 Int) ) (= (mem4 x_298 x_297 x_295) (mem4 x_298 x_297 x_296))))) (forall ( (x_299 Int) ) (= (mem0 x_299 g_s16_16) (exists ( (x_300 (P (C Int Int))) ) (mem5 x_299 x_300 x_291)))) (forall ( (x_301 (P (C Int Int))) ) (=> (exists ( (x_302 Int) ) (mem5 x_302 x_301 x_291)) (forall ( (x_303 Int) (x_304 Int) ) (=> (mem4 x_304 x_303 x_301) (and (and (>= x_304 0) (<= x_304 (- g_s1_1 1))) (or  (= x_303 g_s12_12) (= x_303 g_s13_13))))))))))
(define-fun lh_13 () Bool (forall ( (x_305 Int) (x_306 Int) ) (= (and (forall ((x_307 (P (C Int Int))) ) (=> (mem5 g_s17_17 x_307 g_s47_57) (mem4 x_306 x_305 x_307))) (and (and (>= x_306 g_s28_28) (<= x_306 (- g_s45_51 1))) (= x_305 g_s13_13))) false)))
(define-fun lh_14 () Bool (and (mem0 g_s34_61 g_s16_16) (not (or  (= g_s34_61 g_s17_17) (= g_s34_61 g_s18_18)))))
(define-fun lh_15 () Bool (forall ( (l_s34 Int) ) (=> (and (mem0 l_s34 g_s16_16) (not (or  (= l_s34 g_s17_17) (= l_s34 g_s18_18)))) (forall ( (x_308 Int) (x_309 Int) ) (=> (and (forall ((x_310 Int) ) (=> (and  (or  (= x_310 g_s45_51) (= x_310 g_s43_48) (= x_310 g_s33_33)) (forall ( (x_311 Int) ) (=> (or  (= x_311 g_s45_51) (= x_311 g_s43_48) (= x_311 g_s33_33)) (<= x_310 x_311)))) (and (>= x_309 g_s28_28) (<= x_309 (- x_310 1))))) (= x_308 g_s13_13)) (forall ((x_312 (P (C Int Int))) ) (=> (mem5 l_s34 x_312 g_s47_57) (mem4 x_309 x_308 x_312))))))))
(define-fun lh_16 () Bool (forall ( (x_313 Int) (x_314 Int) ) (= (and (and (mem0 x_314 g_s0_0) (= x_313 g_s13_13)) (forall ((x_315 (P (C Int Int))) ) (=> (mem5 g_s21_21 x_315 g_s47_57) (mem4 x_314 x_313 x_315)))) false)))
(define-fun lh_17 () Bool (and (mem0 g_s34_61 g_s16_16) (not (= g_s34_61 g_s17_17))))
(define-fun lh_18 () Bool (forall ( (l_s34 Int) ) (=> (and (mem0 l_s34 g_s16_16) (not (= l_s34 g_s17_17))) (forall ( (x_316 Int) (x_317 Int) ) (=> (and (forall ((x_318 Int) ) (=> (and  (or  (= x_318 g_s45_51) (= x_318 g_s43_48) (= x_318 g_s33_33)) (forall ( (x_319 Int) ) (=> (or  (= x_319 g_s45_51) (= x_319 g_s43_48) (= x_319 g_s33_33)) (<= x_318 x_319)))) (and (>= x_317 g_s28_28) (<= x_317 (- x_318 1))))) (= x_316 g_s13_13)) (forall ((x_320 (P (C Int Int))) ) (=> (mem5 l_s34 x_320 g_s47_57) (mem4 x_317 x_316 x_320))))))))
(define-fun lh_19 () Bool (mem0 g_s34_61 g_s16_16))
; PO 6 in group s79
(assert (! (not (=> (and lh_1 lh_2 lh_3 lh_4 lh_5 lh_6 lh_7 lh_8 lh_9 lh_10 lh_11 lh_12 lh_13 lh_15) (exists ( (x_321 (P (C Int Int))) ) (mem5 g_s21_21 x_321 g_s47_57)))) :named goal))
(check-sat)
(exit)
